1 175 130 34 81 180 120 138 52 8 66 38 186 149 168 11 89 90 17 140 94 32 105 97 167 98 170 49 139 70 153 173 22 185 42 110 23 121 190 101 195 103 111 193 58 128 29 191 197 176 199 108 129 36 159 75 67 132 7 198 74 112 61 171 161 135 72 57 31 99 78 194 80 76 127 109 125 146 46 134 157 107 184 158 96 86 160 65 174 45 166 33 68 14 187 104 106 183 82 18 6 40 83 3 177 5 116 102 9 10 142 20 25 114 164 182 21 47 133 115 12 28 151 56 95 148 131 163 26 87 113 55 178 117 92 141 48 2 144 30 100 192 51 119 35 62 37 196 19 136 145 118 124 53 60 44 93 4 155 64 150 59 85 189 143 152 16 63 154 54 91 77 43 71 122 123 188 39 73 15 69 172 137 84 41 147 165 24 27 88 179 13 79 181 156 200 126 162 169 50
